129
1000000
101978
225327
155028
146644
111137
161741
5753
28879
242421
170308
91340
110907
226428
103556
170664
82599
40604
77049
183997
248255
90776
87342
157256
247011
174069
60410
18182
82005
7109
157148
108194
222877
2538
72610
123847
44245
163641
221890
216589
15918
199110
58219
134880
64224
230323
71321
153199
38537
193721
22377
192227
169339
5456
92555
148109
64674
60742
184511
40591
14201
139439
112830
11352
38649
173987
222197
76010
60931
146744
87331
143793
203675
93968
155659
200086
79345
130406
227385
191220
15349
203018
3028
183924
69647
155889
69226
235293
13301
14167
54845
229503
139319
165320
68508
131127
158547
243588
37434
51303
67313
94636
138055
176778
161465
177540
112290
25116
51008
4804
248716
37666
46774
226429
19079
159
202654
21520
128147
210418
96056
64933
189593
66864
109976
133874
12497
139427
94223
108059
